NAME 
ROWS
 N  OBJ
 L  R0      
 L  R1      
 E  R2      
 E  R3      
 E  R4      
 E  R5      
 E  R6      
 E  R7      
 E  R8      
 E  R9      
 E  R10     
 E  R11     
 E  R12     
 E  R13     
 E  R14     
 E  R15     
 E  R16     
 E  R17     
 E  R18     
 E  R19     
 E  R20     
 E  R21     
COLUMNS
    MARKER    'MARKER'                 'INTORG'
    I0(10)    OBJ       -149
    I0(10)    R0        103
    I0(10)    R1        -174
    I0(10)    R2        9
    I0(10)    R3        13
    I0(10)    R4        15
    I0(10)    R5        4
    I0(10)    R6        1
    I0(10)    R7        15
    I0(10)    R8        11
    I0(10)    R21       1
    I1(7)     OBJ       57
    I1(7)     R0        -180
    I1(7)     R1        173
    I1(7)     R2        15
    I1(7)     R5        17
    I1(7)     R9        14
    I1(7)     R11       19
    I1(7)     R21       1
    I2(8)     OBJ       -174
    I2(8)     R0        63
    I2(8)     R1        98
    I2(8)     R2        10
    I2(8)     R4        10
    I2(8)     R7        16
    I2(8)     R9        16
    I2(8)     R11       5
    I2(8)     R21       1
    I3(10)    OBJ       140
    I3(10)    R0        98
    I3(10)    R1        -89
    I3(10)    R2        4
    I3(10)    R4        12
    I3(10)    R5        12
    I3(10)    R6        18
    I3(10)    R9        9
    I3(10)    R10       17
    I3(10)    R11       13
    I3(10)    R21       1
    I4(10)    OBJ       -111
    I4(10)    R0        -165
    I4(10)    R1        -104
    I4(10)    R2        10
    I4(10)    R3        3
    I4(10)    R4        2
    I4(10)    R5        15
    I4(10)    R6        10
    I4(10)    R9        8
    I4(10)    R10       7
    I4(10)    R21       1
    I5(10)    OBJ       -122
    I5(10)    R0        -19
    I5(10)    R1        -182
    I5(10)    R3        13
    I5(10)    R4        11
    I5(10)    R6        17
    I5(10)    R7        10
    I5(10)    R8        6
    I5(10)    R9        3
    I5(10)    R10       6
    I5(10)    R21       1
    I6(10)    OBJ       186
    I6(10)    R0        165
    I6(10)    R1        -152
    I6(10)    R2        4
    I6(10)    R3        13
    I6(10)    R4        16
    I6(10)    R5        17
    I6(10)    R6        16
    I6(10)    R7        16
    I6(10)    R11       16
    I6(10)    R21       1
    I7(8)     OBJ       -170
    I7(8)     R0        -50
    I7(8)     R1        -36
    I7(8)     R3        17
    I7(8)     R4        6
    I7(8)     R5        5
    I7(8)     R7        9
    I7(8)     R11       4
    I7(8)     R21       1
    I8(12)    OBJ       96
    I8(12)    R0        57
    I8(12)    R1        -51
    I8(12)    R2        3
    I8(12)    R3        9
    I8(12)    R4        -1
    I8(12)    R5        11
    I8(12)    R6        2
    I8(12)    R7        10
    I8(12)    R8        3
    I8(12)    R9        19
    I8(12)    R10       14
    I8(12)    R21       1
    I9(11)    OBJ       1
    I9(11)    R0        -172
    I9(11)    R1        -61
    I9(11)    R2        19
    I9(11)    R4        12
    I9(11)    R5        10
    I9(11)    R6        -1
    I9(11)    R7        16
    I9(11)    R9        16
    I9(11)    R10       1
    I9(11)    R11       11
    I9(11)    R21       1
    MARKER    'MARKER'                 'INTEND'
    C10(16)   OBJ       -1
    C10(16)   R0        -4
    C10(16)   R1        -3
    C10(16)   R2        5
    C10(16)   R3        9
    C10(16)   R4        14
    C10(16)   R5        -1
    C10(16)   R6        16
    C10(16)   R10       2
    C10(16)   R12       3
    C10(16)   R13       12
    C10(16)   R14       1
    C10(16)   R16       18
    C10(16)   R17       19
    C10(16)   R18       5
    C10(16)   R19       2
    C10(16)   R20       17
    C11(9)    OBJ       5
    C11(9)    R0        6
    C11(9)    R1        7
    C11(9)    R2        11
    C11(9)    R3        7
    C11(9)    R6        18
    C11(9)    R10       11
    C11(9)    R11       13
    C11(9)    R14       -1
    C11(9)    R16       8
    C12(15)   OBJ       3
    C12(15)   R0        -7
    C12(15)   R1        3
    C12(15)   R2        10
    C12(15)   R3        -1
    C12(15)   R4        16
    C12(15)   R5        16
    C12(15)   R6        13
    C12(15)   R8        3
    C12(15)   R11       1
    C12(15)   R13       16
    C12(15)   R14       12
    C12(15)   R15       -1
    C12(15)   R16       17
    C12(15)   R18       1
    C12(15)   R19       10
    C13(10)   OBJ       8
    C13(10)   R0        -1
    C13(10)   R1        -7
    C13(10)   R3        1
    C13(10)   R6        19
    C13(10)   R7        -1
    C13(10)   R8        19
    C13(10)   R13       19
    C13(10)   R14       17
    C13(10)   R18       13
    C13(10)   R20       8
    C14(13)   OBJ       -2
    C14(13)   R1        -1
    C14(13)   R2        5
    C14(13)   R4        4
    C14(13)   R5        14
    C14(13)   R7        14
    C14(13)   R9        8
    C14(13)   R10       9
    C14(13)   R12       4
    C14(13)   R13       17
    C14(13)   R15       5
    C14(13)   R17       -1
    C14(13)   R19       9
    C14(13)   R20       9
    C15(16)   OBJ       -8
    C15(16)   R0        -7
    C15(16)   R1        -9
    C15(16)   R2        17
    C15(16)   R3        1
    C15(16)   R4        12
    C15(16)   R7        12
    C15(16)   R8        17
    C15(16)   R10       19
    C15(16)   R11       9
    C15(16)   R12       10
    C15(16)   R13       10
    C15(16)   R14       4
    C15(16)   R15       17
    C15(16)   R16       2
    C15(16)   R19       3
    C15(16)   R20       9
    C16(12)   OBJ       1
    C16(12)   R0        -2
    C16(12)   R1        -10
    C16(12)   R4        11
    C16(12)   R7        8
    C16(12)   R9        3
    C16(12)   R11       16
    C16(12)   R12       7
    C16(12)   R13       9
    C16(12)   R14       17
    C16(12)   R15       7
    C16(12)   R18       8
    C16(12)   R20       2
    C17(14)   OBJ       -8
    C17(14)   R0        6
    C17(14)   R1        -3
    C17(14)   R5        6
    C17(14)   R6        16
    C17(14)   R7        1
    C17(14)   R9        12
    C17(14)   R10       4
    C17(14)   R11       1
    C17(14)   R13       18
    C17(14)   R14       8
    C17(14)   R15       4
    C17(14)   R17       19
    C17(14)   R19       19
    C17(14)   R20       -1
    C18(18)   OBJ       6
    C18(18)   R0        -3
    C18(18)   R1        3
    C18(18)   R2        -1
    C18(18)   R3        1
    C18(18)   R4        9
    C18(18)   R5        18
    C18(18)   R7        1
    C18(18)   R8        8
    C18(18)   R9        14
    C18(18)   R11       3
    C18(18)   R12       2
    C18(18)   R13       6
    C18(18)   R14       2
    C18(18)   R15       1
    C18(18)   R17       1
    C18(18)   R18       3
    C18(18)   R19       5
    C18(18)   R20       -1
    C19(20)   OBJ       -7
    C19(20)   R0        2
    C19(20)   R1        -3
    C19(20)   R2        19
    C19(20)   R3        19
    C19(20)   R4        12
    C19(20)   R5        17
    C19(20)   R6        13
    C19(20)   R7        11
    C19(20)   R8        15
    C19(20)   R9        11
    C19(20)   R10       15
    C19(20)   R11       2
    C19(20)   R12       12
    C19(20)   R13       -1
    C19(20)   R15       19
    C19(20)   R16       18
    C19(20)   R17       4
    C19(20)   R18       10
    C19(20)   R19       3
    C19(20)   R20       17
    C20(1)    R2        1
    C21(1)    R3        1
    C22(1)    R4        1
    C23(1)    R5        1
    C24(1)    R6        1
    C25(1)    R7        1
    C26(1)    R8        1
    C27(1)    R9        1
    C28(1)    R10       1
    C29(1)    R11       1
    C30(1)    R12       1
    C31(1)    R13       1
    C32(1)    R14       1
    C33(1)    R15       1
    C34(1)    R16       1
    C35(1)    R17       1
    C36(1)    R18       1
    C37(1)    R19       1
    C38(1)    R20       1
    C39(1)    R21       1
RHS
    RHS1      R0        -3.8437189054726410e+01
    RHS1      R1        1.6781716417910424e+00
    RHS1      R2        81
    RHS1      R3        70
    RHS1      R4        77
    RHS1      R5        81
    RHS1      R6        55
    RHS1      R7        55
    RHS1      R8        72
    RHS1      R9        81
    RHS1      R10       84
    RHS1      R11       89
    RHS1      R12       73
    RHS1      R13       89
    RHS1      R14       77
    RHS1      R15       97
    RHS1      R16       52
    RHS1      R17       78
    RHS1      R18       75
    RHS1      R19       51
    RHS1      R20       82
    RHS1      R21       3
BOUNDS
 UP BND1      I0(10)    2
 UP BND1      I1(7)     2
 UP BND1      I2(8)     2
 UP BND1      I3(10)    2
 UP BND1      I4(10)    2
 UP BND1      I5(10)    2
 UP BND1      I6(10)    2
 UP BND1      I7(8)     2
 UP BND1      I8(12)    2
 UP BND1      I9(11)    2
ENDATA
